NAME 
ROWS
 N  OBJ
 L  R0      
 L  R1      
 L  R2      
 E  R3      
COLUMNS
    MARKER    'MARKER'                 'INTORG'
    I0(4)     OBJ       -149
    I0(4)     R0        -384
    I0(4)     R1        -137
    I0(4)     R2        -936
    I0(4)     R3        860
    I1(4)     OBJ       -741
    I1(4)     R0        -23
    I1(4)     R1        -587
    I1(4)     R2        -662
    I1(4)     R3        506
    I2(4)     OBJ       -532
    I2(4)     R0        -987
    I2(4)     R1        -916
    I2(4)     R2        -983
    I2(4)     R3        129
    I3(4)     OBJ       -380
    I3(4)     R0        -847
    I3(4)     R1        -626
    I3(4)     R2        -344
    I3(4)     R3        967
    I4(4)     OBJ       -656
    I4(4)     R0        -18
    I4(4)     R1        -580
    I4(4)     R2        -408
    I4(4)     R3        332
    I5(4)     OBJ       -391
    I5(4)     R0        -504
    I5(4)     R1        -703
    I5(4)     R2        -765
    I5(4)     R3        293
    I6(4)     OBJ       -694
    I6(4)     R0        -104
    I6(4)     R1        -774
    I6(4)     R2        -406
    I6(4)     R3        93
    I7(4)     OBJ       -371
    I7(4)     R0        -322
    I7(4)     R1        -662
    I7(4)     R2        -544
    I7(4)     R3        660
    I8(4)     OBJ       -579
    I8(4)     R0        -253
    I8(4)     R1        -935
    I8(4)     R2        -240
    I8(4)     R3        561
    I9(4)     OBJ       -662
    I9(4)     R0        -668
    I9(4)     R1        -86
    I9(4)     R2        -840
    I9(4)     R3        540
    I10(4)    OBJ       -154
    I10(4)    R0        -215
    I10(4)    R1        -840
    I10(4)    R2        -259
    I10(4)    R3        242
    I11(4)    OBJ       -201
    I11(4)    R0        -402
    I11(4)    R1        -319
    I11(4)    R2        -376
    I11(4)    R3        497
    I12(4)    OBJ       -489
    I12(4)    R0        -408
    I12(4)    R1        -108
    I12(4)    R2        -426
    I12(4)    R3        202
    I13(4)    OBJ       -993
    I13(4)    R0        -746
    I13(4)    R1        -826
    I13(4)    R2        -174
    I13(4)    R3        225
    I14(4)    OBJ       -788
    I14(4)    R0        -782
    I14(4)    R1        -165
    I14(4)    R2        -2
    I14(4)    R3        840
    I15(4)    OBJ       -148
    I15(4)    R0        -63
    I15(4)    R1        -126
    I15(4)    R2        -6
    I15(4)    R3        609
    I16(4)    OBJ       -82
    I16(4)    R0        -137
    I16(4)    R1        -329
    I16(4)    R2        -876
    I16(4)    R3        989
    I17(4)    OBJ       -232
    I17(4)    R0        -476
    I17(4)    R1        -269
    I17(4)    R2        -775
    I17(4)    R3        246
    I18(4)    OBJ       -312
    I18(4)    R0        -434
    I18(4)    R1        -448
    I18(4)    R2        -667
    I18(4)    R3        152
    I19(4)    OBJ       -178
    I19(4)    R0        -715
    I19(4)    R1        -582
    I19(4)    R2        -811
    I19(4)    R3        228
    I20(1)    R3        1
    MARKER    'MARKER'                 'INTEND'
RHS
    RHS1      R0        -6118
    RHS1      R1        -6979
    RHS1      R2        -7159
    RHS1      R3        4585
BOUNDS
 UP BND1      I0(4)     1
 UP BND1      I1(4)     1
 UP BND1      I2(4)     1
 UP BND1      I3(4)     1
 UP BND1      I4(4)     1
 UP BND1      I5(4)     1
 UP BND1      I6(4)     1
 UP BND1      I7(4)     1
 UP BND1      I8(4)     1
 UP BND1      I9(4)     1
 UP BND1      I10(4)    1
 UP BND1      I11(4)    1
 UP BND1      I12(4)    1
 UP BND1      I13(4)    1
 UP BND1      I14(4)    1
 UP BND1      I15(4)    1
 UP BND1      I16(4)    1
 UP BND1      I17(4)    1
 UP BND1      I18(4)    1
 UP BND1      I19(4)    1
 LI BND1      I20(1)    0
ENDATA
